
Gurobi 13.0.0 (linux64) logging started Thu Jan 15 02:10:59 2026

Set parameter LogFile to value "../experiments/network-n_40_s_2_rp_0-app_set-id_23_12_apps/submip_40_epr1_model_gurobi.log"
Set parameter TimeLimit to value 883.221137872999
Gurobi Optimizer version 13.0.0 build v13.0.0rc1 (linux64 - "Ubuntu 24.04.3 LTS")

CPU model: Intel(R) Core(TM) Ultra 7 165H, instruction set [SSE2|AVX|AVX2]
Thread count: 22 physical cores, 22 logical processors, using up to 22 threads

Non-default parameters:
TimeLimit  883.221137872999
LogToConsole  0

Academic license 2539022 - for non-commercial use only - registered to al___@studenti.unimi.it
Optimize a model with 10209 rows, 3120 columns and 24629 nonzeros (Min)
Model fingerprint: 0x848fb659
Model has 3120 linear objective coefficients
Model has 126 quadratic constraints
Variable types: 0 continuous, 3120 integer (3120 binary)
Coefficient statistics:
  Matrix range     [1e+00, 9e+02]
  QMatrix range    [6e+01, 2e+02]
  Objective range  [1e+01, 2e+02]
  Bounds range     [1e+00, 1e+00]
  RHS range        [1e+00, 1e+09]
  QRHS range       [1e+02, 6e+02]

MIP start from previous solve did not produce a new incumbent solution
MIP start from previous solve violates constraint fixed_app_5_microservice_7 by 1.000000000

Presolve removed 9860 rows and 2521 columns
Presolve time: 0.04s
Presolved: 5007 rows, 5113 columns, 29870 nonzeros
Variable types: 0 continuous, 5113 integer (5113 binary)

Root relaxation: objective 2.822682e+03, 581 iterations, 0.02 seconds (0.04 work units)

    Nodes    |    Current Node    |     Objective Bounds      |     Work
 Expl Unexpl |  Obj  Depth IntInf | Incumbent    BestBd   Gap | It/Node Time

     0     0 2822.68196    0  106          - 2822.68196      -     -    0s
     0     0 3006.39714    0  125          - 3006.39714      -     -    0s
     0     0 3014.67323    0  123          - 3014.67323      -     -    0s
     0     0 3014.68706    0  124          - 3014.68706      -     -    0s
     0     0 3130.43481    0  131          - 3130.43481      -     -    0s
     0     0 3175.18974    0  135          - 3175.18974      -     -    0s
     0     0 infeasible    0               - infeasible      -     -    0s

Cutting planes:
  Gomory: 3
  Lift-and-project: 4
  Cover: 21
  Clique: 9
  MIR: 41
  Knapsack: 2
  StrongCG: 10
  GUB cover: 7
  Zero half: 11
  RLT: 74
  Relax-and-lift: 8
  BQP: 16

Explored 1 nodes (1861 simplex iterations) in 0.61 seconds (0.54 work units)
Thread count was 22 (of 22 available processors)

Solution count 0

Model is infeasible
Best objective -, best bound -, gap -

User-callback calls 728, time in user-callback 0.00 sec
